Maximize
  300 x_vanilla_ice_cream + 200 x_chocolate
Subject To
  c1: x_chocolate >= 5
  c2: x_vanilla_ice_cream >= 5
  c3: x_chocolate <= 10
  c4: x_vanilla_ice_cream <= 8
  c5: 1 x_chocolate + 2 x_vanilla_ice_cream <= 30
  c6: 1 x_chocolate + 2 x_vanilla_ice_cream >= 6
End